\* Source Pyomo model name=C2 *\

min 
x1:
+1 x2
+1 x3
+1 x4
+1 x5
+1 x6
+1 x7
+1 x8
+1 x9
+1 x10

s.t.

c_e_x11_:
+1 x12
+1 x13
-1 x14
-1 x15
= -1150

c_e_x16_:
+1 x17
+1 x18
-1 x19
+0.95 x15
-1 x20
= 0

c_e_x21_:
+1 x22
+1 x23
-1 x24
+0.95 x20
-1 x25
= 0

c_e_x26_:
+1 x27
-1 x13
+1 x28
+0.5 x14
-1 x29
-1 x30
= -1700

c_e_x31_:
+1 x32
-1 x18
+1 x33
+0.5 x19
-1 x34
+0.95 x30
-1 x35
= 0

c_e_x36_:
+1 x37
-1 x23
+1 x38
+0.5 x24
-1 x39
+0.95 x35
-1 x40
= 0

c_e_x41_:
+1 x42
-1 x28
+0.5 x29
-1 x43
= -2400

c_e_x44_:
+1 x45
-1 x33
+0.5 x34
+0.9 x43
-1 x46
= 0

c_e_x47_:
+1 x48
-1 x38
+0.5 x39
+0.9 x46
-1 x49
= 0

c_e_x50_:
-1 x2
+1 x15
+1 x51
+0.5 x52
= 1250

c_e_x53_:
-1 x3
+1 x20
+1 x54
+0.5 x55
= 1800

c_e_x56_:
-1 x4
+1 x25
+1 x57
+0.5 x58
= 2500

c_e_x59_:
-1 x5
+1 x30
+1 x60
+0.5 x61
= 1600

c_e_x62_:
-1 x6
+1 x35
+1 x63
+0.5 x64
= 2250

c_e_x65_:
-1 x7
+1 x40
+1 x66
+0.5 x67
= 3000

c_e_x68_:
-1 x8
+1 x43
+1 x69
+0.5 x70
= 1200

c_e_x71_:
-1 x9
+1 x46
+1 x72
+0.5 x73
= 750

c_e_x74_:
-1 x10
+1 x49
+1 x75
+0.5 x76
= 0

c_u_x77_:
+1 x12
<= 600

c_u_x78_:
+1 x17
<= 600

c_u_x79_:
+1 x22
<= 600

c_u_x80_:
+1 x27
<= 900

c_u_x81_:
+1 x32
<= 900

c_u_x82_:
+1 x37
<= 900

c_u_x83_:
+1 x42
<= 500

c_u_x84_:
+1 x45
<= 500

c_u_x85_:
+1 x48
<= 500

c_u_x86_:
+1 x28
<= 300

c_u_x87_:
+1 x33
<= 300

c_u_x88_:
+1 x38
<= 300

c_u_x89_:
+1 x13
<= 340.0

c_u_x90_:
+1 x18
-0.2 x30
<= 0

c_u_x91_:
+1 x23
-0.2 x35
<= 0

c_u_x92_:
+1 x51
+1 x60
+1 x69
<= 175

c_u_x93_:
+1 x54
+1 x63
+1 x72
<= 175

c_u_x94_:
+1 x57
+1 x66
+1 x75
<= 175

c_u_x95_:
+1 x52
+1 x61
+1 x70
<= 80

c_u_x96_:
+1 x55
+1 x64
+1 x73
<= 80

c_u_x97_:
+1 x58
+1 x67
+1 x76
<= 80

c_e_x98_:
-500 x2
-500 x3
-500 x4
-500 x5
-500 x6
-500 x7
-200 x8
-200 x9
-200 x10
-650 x12
-650 x17
-650 x22
-550 x27
-550 x32
-550 x37
-450 x42
-450 x45
-450 x48
-300 x13
-300 x18
-300 x23
-400 x28
-400 x33
-400 x38
-1200 x51
-1200 x54
-1200 x57
-1100 x60
-1100 x63
-1100 x66
-1000 x69
-1000 x72
-1000 x75
-550 x52
-550 x55
-550 x58
-400 x61
-400 x64
-400 x67
-350 x70
-350 x73
-350 x76
+1 x99
= 0

c_u_x100_:
+1 x99
<= 2455450.0

bounds
   0.0 <= x2 <= +inf
   0.0 <= x3 <= +inf
   0.0 <= x4 <= +inf
   0.0 <= x5 <= +inf
   0.0 <= x6 <= +inf
   0.0 <= x7 <= +inf
   0.0 <= x8 <= +inf
   0.0 <= x9 <= +inf
   0.0 <= x10 <= +inf
   0.0 <= x12 <= +inf
   0.0 <= x17 <= +inf
   0.0 <= x22 <= +inf
   0.0 <= x27 <= +inf
   0.0 <= x32 <= +inf
   0.0 <= x37 <= +inf
   0.0 <= x42 <= +inf
   0.0 <= x45 <= +inf
   0.0 <= x48 <= +inf
   0.0 <= x13 <= +inf
   0.0 <= x18 <= +inf
   0.0 <= x23 <= +inf
   0.0 <= x28 <= +inf
   0.0 <= x33 <= +inf
   0.0 <= x38 <= +inf
   0.0 <= x14 <= +inf
   0.0 <= x19 <= +inf
   0.0 <= x24 <= +inf
   0.0 <= x29 <= +inf
   0.0 <= x34 <= +inf
   0.0 <= x39 <= +inf
   0.0 <= x15 <= +inf
   0.0 <= x20 <= +inf
   0.0 <= x25 <= +inf
   0.0 <= x30 <= +inf
   0.0 <= x35 <= +inf
   0.0 <= x40 <= +inf
   0.0 <= x43 <= +inf
   0.0 <= x46 <= +inf
   0.0 <= x49 <= +inf
   0.0 <= x51 <= +inf
   0.0 <= x54 <= +inf
   0.0 <= x57 <= +inf
   0.0 <= x60 <= +inf
   0.0 <= x63 <= +inf
   0.0 <= x66 <= +inf
   0.0 <= x69 <= +inf
   0.0 <= x72 <= +inf
   0.0 <= x75 <= +inf
   0.0 <= x52 <= +inf
   0.0 <= x55 <= +inf
   0.0 <= x58 <= +inf
   0.0 <= x61 <= +inf
   0.0 <= x64 <= +inf
   0.0 <= x67 <= +inf
   0.0 <= x70 <= +inf
   0.0 <= x73 <= +inf
   0.0 <= x76 <= +inf
   0.0 <= x99 <= +inf
end
